55
1 0 19
2 0 70
2 1 92
3 0 63
3 1 16
3 2 53
4 0 29
4 1 86
4 2 14
4 3 65
5 0 63
5 1 2
5 2 14
5 3 19
5 4 77
6 0 53
6 1 77
6 2 8
6 3 57
6 4 18
6 5 41
7 0 32
7 1 75
7 2 45
7 3 80
7 4 5
7 5 83
7 6 79
8 0 31
8 1 61
8 2 98
8 3 8
8 4 7
8 5 54
8 6 70
8 7 26
9 0 73
9 1 18
9 2 49
9 3 93
9 4 44
9 5 7
9 6 5
9 7 44
9 8 43
10 0 59
10 1 65
10 2 78
10 3 19
10 4 51
10 5 67
10 6 16
10 7 11
10 8 17
10 9 50
11 0 19
11 1 30
11 2 71
11 3 22
11 4 14
11 5 59
11 6 46
11 7 87
11 8 48
11 9 21
11 10 34
12 0 16
12 1 82
12 2 65
12 3 9
12 4 85
12 5 92
12 6 46
12 7 43
12 8 32
12 9 43
12 10 18
12 11 65
13 0 99
13 1 44
13 2 74
13 3 18
13 4 47
13 5 6
13 6 80
13 7 7
13 8 85
13 9 59
13 10 95
13 11 54
13 12 40
14 0 2
14 1 84
14 2 97
14 3 39
14 4 94
14 5 58
14 6 96
14 7 18
14 8 4
14 9 90
14 10 47
14 11 53
14 12 76
14 13 9
15 0 94
15 1 80
15 2 92
15 3 60
15 4 7
15 5 63
15 6 20
15 7 71
15 8 75
15 9 4
15 10 94
15 11 100
15 12 95
15 13 27
15 14 60
16 0 11
16 1 98
16 2 72
16 3 73
16 4 26
16 5 23
16 6 72
16 7 49
16 8 55
16 9 25
16 10 11
16 11 93
16 12 86
16 13 86
16 14 82
16 15 60
17 0 96
17 1 68
17 2 89
17 3 25
17 4 11
17 5 29
17 6 65
17 7 57
17 8 38
17 9 65
17 10 9
17 11 39
17 12 26
17 13 85
17 14 44
17 15 69
17 16 43
18 0 18
18 1 65
18 2 31
18 3 80
18 4 93
18 5 31
18 6 33
18 7 9
18 8 67
18 9 100
18 10 37
18 11 51
18 12 75
18 13 35
18 14 43
18 15 50
18 16 32
18 17 18
19 0 84
19 1 52
19 2 13
19 3 45
19 4 63
19 5 15
19 6 82
19 7 4
19 8 27
19 9 26
19 10 65
19 11 45
19 12 54
19 13 96
19 14 69
19 15 98
19 16 21
19 17 40
19 18 93
20 0 7
20 1 53
20 2 85
20 3 100
20 4 72
20 5 82
20 6 55
20 7 29
20 8 21
20 9 73
20 10 20
20 11 71
20 12 65
20 13 82
20 14 17
20 15 43
20 16 95
20 17 61
20 18 74
20 19 29
21 0 23
21 1 29
21 2 4
21 3 66
21 4 92
21 5 65
21 6 37
21 7 10
21 8 90
21 9 91
21 10 7
21 11 100
21 12 47
21 13 66
21 14 38
21 15 98
21 16 10
21 17 94
21 18 61
21 19 89
21 20 10
22 0 19
22 1 68
22 2 57
22 3 78
22 4 68
22 5 5
22 6 78
22 7 71
22 8 56
22 9 31
22 10 90
22 11 5
22 12 72
22 13 9
22 14 31
22 15 19
22 16 1
22 17 5
22 18 69
22 19 22
22 20 59
22 21 12
23 0 42
23 1 73
23 2 44
23 3 27
23 4 94
23 5 12
23 6 25
23 7 34
23 8 90
23 9 52
23 10 30
23 11 90
23 12 15
23 13 75
23 14 96
23 15 4
23 16 7
23 17 15
23 18 5
23 19 65
23 20 89
23 21 10
23 22 1
24 0 52
24 1 81
24 2 45
24 3 78
24 4 30
24 5 9
24 6 51
24 7 81
24 8 25
24 9 63
24 10 98
24 11 42
24 12 27
24 13 48
24 14 7
24 15 81
24 16 62
24 17 28
24 18 89
24 19 3
24 20 28
24 21 87
24 22 54
24 23 90
25 0 99
25 1 23
25 2 64
25 3 77
25 4 30
25 5 64
25 6 36
25 7 48
25 8 26
25 9 76
25 10 91
25 11 93
25 12 47
25 13 93
25 14 23
25 15 12
25 16 75
25 17 95
25 18 37
25 19 62
25 20 50
25 21 11
25 22 65
25 23 85
25 24 69
26 0 23
26 1 75
26 2 51
26 3 91
26 4 99
26 5 13
26 6 4
26 7 90
26 8 85
26 9 69
26 10 23
26 11 72
26 12 23
26 13 35
26 14 95
26 15 14
26 16 87
26 17 95
26 18 89
26 19 15
26 20 51
26 21 92
26 22 76
26 23 64
26 24 17
26 25 30
27 0 19
27 1 58
27 2 95
27 3 21
27 4 45
27 5 30
27 6 88
27 7 85
27 8 63
27 9 63
27 10 28
27 11 66
27 12 97
27 13 10
27 14 85
27 15 10
27 16 38
27 17 48
27 18 18
27 19 24
27 20 39
27 21 13
27 22 60
27 23 27
27 24 20
27 25 25
27 26 44
28 0 33
28 1 31
28 2 83
28 3 24
28 4 52
28 5 6
28 6 78
28 7 32
28 8 82
28 9 15
28 10 89
28 11 89
28 12 40
28 13 76
28 14 25
28 15 61
28 16 56
28 17 91
28 18 38
28 19 11
28 20 10
28 21 29
28 22 34
28 23 5
28 24 6
28 25 62
28 26 44
28 27 76
29 0 6
29 1 20
29 2 26
29 3 33
29 4 62
29 5 30
29 6 27
29 7 90
29 8 30
29 9 60
29 10 18
29 11 43
29 12 49
29 13 69
29 14 73
29 15 17
29 16 11
29 17 36
29 18 68
29 19 71
29 20 70
29 21 40
29 22 13
29 23 17
29 24 55
29 25 82
29 26 50
29 27 14
29 28 85
30 0 92
30 1 67
30 2 24
30 3 15
30 4 64
30 5 30
30 6 39
30 7 43
30 8 94
30 9 12
30 10 37
30 11 59
30 12 30
30 13 85
30 14 7
30 15 30
30 16 57
30 17 9
30 18 51
30 19 46
30 20 67
30 21 9
30 22 72
30 23 59
30 24 95
30 25 56
30 26 84
30 27 3
30 28 23
30 29 67
31 0 10
31 1 77
31 2 71
31 3 4
31 4 63
31 5 18
31 6 39
31 7 36
31 8 14
31 9 15
31 10 70
31 11 89
31 12 100
31 13 18
31 14 37
31 15 96
31 16 19
31 17 57
31 18 77
31 19 36
31 20 20
31 21 78
31 22 31
31 23 7
31 24 93
31 25 50
31 26 70
31 27 78
31 28 89
31 29 8
31 30 88
32 0 29
32 1 62
32 2 31
32 3 18
32 4 44
32 5 88
32 6 73
32 7 4
32 8 42
32 9 4
32 10 98
32 11 5
32 12 60
32 13 89
32 14 86
32 15 47
32 16 99
32 17 62
32 18 99
32 19 39
32 20 25
32 21 76
32 22 43
32 23 2
32 24 76
32 25 38
32 26 62
32 27 5
32 28 1
32 29 70
32 30 28
32 31 85
33 0 65
33 1 9
33 2 41
33 3 100
33 4 67
33 5 97
33 6 47
33 7 60
33 8 61
33 9 14
33 10 14
33 11 2
33 12 95
33 13 60
33 14 55
33 15 30
33 16 84
33 17 70
33 18 80
33 19 30
33 20 95
33 21 54
33 22 98
33 23 25
33 24 6
33 25 55
33 26 22
33 27 37
33 28 72
33 29 90
33 30 43
33 31 63
33 32 7
34 0 21
34 1 66
34 2 92
34 3 56
34 4 54
34 5 38
34 6 14
34 7 35
34 8 76
34 9 100
34 10 95
34 11 46
34 12 74
34 13 49
34 14 29
34 15 2
34 16 95
34 17 94
34 18 81
34 19 22
34 20 39
34 21 31
34 22 84
34 23 73
34 24 2
34 25 82
34 26 61
34 27 76
34 28 4
34 29 73
34 30 77
34 31 2
34 32 71
34 33 39
35 0 45
35 1 14
35 2 55
35 3 82
35 4 42
35 5 54
35 6 12
35 7 25
35 8 7
35 9 63
35 10 72
35 11 37
35 12 25
35 13 77
35 14 71
35 15 20
35 16 30
35 17 62
35 18 32
35 19 82
35 20 67
35 21 58
35 22 7
35 23 32
35 24 96
35 25 58
35 26 23
35 27 92
35 28 50
35 29 31
35 30 96
35 31 89
35 32 52
35 33 78
35 34 98
36 0 75
36 1 61
36 2 70
36 3 2
36 4 5
36 5 20
36 6 10
36 7 29
36 8 50
36 9 3
36 10 26
36 11 79
36 12 40
36 13 91
36 14 63
36 15 16
36 16 56
36 17 32
36 18 63
36 19 42
36 20 18
36 21 54
36 22 31
36 23 84
36 24 42
36 25 45
36 26 26
36 27 64
36 28 52
36 29 13
36 30 35
36 31 43
36 32 86
36 33 88
36 34 11
36 35 48
37 0 20
37 1 41
37 2 82
37 3 31
37 4 97
37 5 17
37 6 72
37 7 15
37 8 50
37 9 16
37 10 82
37 11 20
37 12 40
37 13 73
37 14 22
37 15 81
37 16 58
37 17 1
37 18 96
37 19 10
37 20 52
37 21 24
37 22 79
37 23 42
37 24 91
37 25 1
37 26 41
37 27 80
37 28 74
37 29 10
37 30 99
37 31 40
37 32 28
37 33 64
37 34 16
37 35 32
37 36 79
38 0 55
38 1 59
38 2 57
38 3 80
38 4 65
38 5 100
38 6 87
38 7 18
38 8 86
38 9 24
38 10 72
38 11 53
38 12 27
38 13 59
38 14 79
38 15 49
38 16 18
38 17 65
38 18 56
38 19 7
38 20 26
38 21 30
38 22 96
38 23 100
38 24 47
38 25 66
38 26 23
38 27 80
38 28 38
38 29 12
38 30 25
38 31 7
38 32 6
38 33 69
38 34 23
38 35 8
38 36 67
38 37 36
39 0 39
39 1 85
39 2 32
39 3 21
39 4 98
39 5 8
39 6 7
39 7 43
39 8 89
39 9 80
39 10 90
39 11 54
39 12 61
39 13 58
39 14 4
39 15 37
39 16 38
39 17 48
39 18 19
39 19 67
39 20 59
39 21 38
39 22 35
39 23 46
39 24 4
39 25 14
39 26 27
39 27 39
39 28 47
39 29 76
39 30 88
39 31 66
39 32 40
39 33 65
39 34 6
39 35 50
39 36 43
39 37 46
39 38 73
40 0 5
40 1 22
40 2 22
40 3 5
40 4 26
40 5 9
40 6 72
40 7 20
40 8 7
40 9 80
40 10 36
40 11 12
40 12 96
40 13 99
40 14 88
40 15 9
40 16 86
40 17 33
40 18 74
40 19 4
40 20 73
40 21 36
40 22 4
40 23 98
40 24 37
40 25 66
40 26 26
40 27 2
40 28 44
40 29 61
40 30 22
40 31 73
40 32 53
40 33 14
40 34 99
40 35 89
40 36 89
40 37 6
40 38 67
40 39 92
41 0 16
41 1 89
41 2 36
41 3 42
41 4 5
41 5 39
41 6 60
41 7 69
41 8 7
41 9 7
41 10 17
41 11 21
41 12 60
41 13 40
41 14 8
41 15 34
41 16 81
41 17 65
41 18 95
41 19 75
41 20 50
41 21 38
41 22 41
41 23 39
41 24 58
41 25 15
41 26 99
41 27 100
41 28 92
41 29 86
41 30 61
41 31 43
41 32 83
41 33 89
41 34 83
41 35 22
41 36 16
41 37 97
41 38 37
41 39 39
41 40 8
42 0 24
42 1 44
42 2 26
42 3 89
42 4 18
42 5 13
42 6 67
42 7 34
42 8 29
42 9 74
42 10 11
42 11 44
42 12 61
42 13 71
42 14 55
42 15 74
42 16 58
42 17 90
42 18 92
42 19 43
42 20 73
42 21 91
42 22 58
42 23 88
42 24 30
42 25 100
42 26 27
42 27 37
42 28 70
42 29 76
42 30 28
42 31 26
42 32 45
42 33 42
42 34 95
42 35 65
42 36 1
42 37 73
42 38 66
42 39 47
42 40 55
42 41 55
43 0 91
43 1 47
43 2 80
43 3 61
43 4 20
43 5 52
43 6 24
43 7 32
43 8 79
43 9 24
43 10 47
43 11 29
43 12 58
43 13 85
43 14 47
43 15 5
43 16 60
43 17 82
43 18 2
43 19 21
43 20 91
43 21 52
43 22 63
43 23 100
43 24 98
43 25 25
43 26 59
43 27 82
43 28 67
43 29 7
43 30 13
43 31 37
43 32 56
43 33 41
43 34 75
43 35 56
43 36 14
43 37 54
43 38 9
43 39 98
43 40 3
43 41 5
43 42 11
44 0 96
44 1 60
44 2 21
44 3 36
44 4 29
44 5 18
44 6 79
44 7 52
44 8 22
44 9 100
44 10 50
44 11 65
44 12 26
44 13 64
44 14 53
44 15 66
44 16 90
44 17 35
44 18 49
44 19 10
44 20 42
44 21 75
44 22 83
44 23 24
44 24 11
44 25 64
44 26 70
44 27 86
44 28 85
44 29 100
44 30 62
44 31 52
44 32 77
44 33 44
44 34 49
44 35 8
44 36 37
44 37 55
44 38 91
44 39 57
44 40 45
44 41 4
44 42 67
44 43 3
45 0 61
45 1 50
45 2 95
45 3 68
45 4 23
45 5 33
45 6 73
45 7 58
45 8 27
45 9 7
45 10 21
45 11 64
45 12 9
45 13 10
45 14 35
45 15 73
45 16 31
45 17 61
45 18 90
45 19 14
45 20 40
45 21 19
45 22 44
45 23 63
45 24 36
45 25 53
45 26 32
45 27 97
45 28 93
45 29 99
45 30 51
45 31 54
45 32 95
45 33 1
45 34 75
45 35 46
45 36 94
45 37 82
45 38 59
45 39 34
45 40 3
45 41 69
45 42 11
45 43 62
45 44 75
46 0 70
46 1 41
46 2 100
46 3 32
46 4 3
46 5 21
46 6 57
46 7 47
46 8 89
46 9 20
46 10 53
46 11 94
46 12 81
46 13 80
46 14 65
46 15 17
46 16 91
46 17 69
46 18 90
46 19 83
46 20 22
46 21 12
46 22 82
46 23 19
46 24 35
46 25 83
46 26 55
46 27 51
46 28 100
46 29 33
46 30 76
46 31 93
46 32 6
46 33 57
46 34 73
46 35 57
46 36 32
46 37 41
46 38 26
46 39 75
46 40 19
46 41 43
46 42 46
46 43 57
46 44 67
46 45 93
47 0 27
47 1 37
47 2 65
47 3 20
47 4 42
47 5 62
47 6 38
47 7 34
47 8 25
47 9 37
47 10 36
47 11 32
47 12 34
47 13 35
47 14 31
47 15 3
47 16 23
47 17 20
47 18 88
47 19 40
47 20 37
47 21 63
47 22 11
47 23 98
47 24 17
47 25 26
47 26 99
47 27 50
47 28 94
47 29 62
47 30 57
47 31 27
47 32 92
47 33 52
47 34 45
47 35 50
47 36 64
47 37 63
47 38 62
47 39 94
47 40 56
47 41 21
47 42 86
47 43 20
47 44 53
47 45 19
47 46 45
48 0 92
48 1 44
48 2 3
48 3 64
48 4 56
48 5 48
48 6 9
48 7 21
48 8 29
48 9 39
48 10 48
48 11 10
48 12 63
48 13 99
48 14 55
48 15 87
48 16 47
48 17 74
48 18 60
48 19 66
48 20 71
48 21 2
48 22 28
48 23 61
48 24 86
48 25 58
48 26 94
48 27 13
48 28 5
48 29 23
48 30 84
48 31 44
48 32 43
48 33 70
48 34 94
48 35 21
48 36 89
48 37 31
48 38 77
48 39 31
48 40 65
48 41 85
48 42 44
48 43 91
48 44 4
48 45 75
48 46 4
48 47 45
49 0 48
49 1 62
49 2 70
49 3 34
49 4 72
49 5 55
49 6 29
49 7 23
49 8 61
49 9 73
49 10 47
49 11 34
49 12 3
49 13 53
49 14 40
49 15 18
49 16 80
49 17 87
49 18 65
49 19 51
49 20 64
49 21 54
49 22 81
49 23 61
49 24 54
49 25 92
49 26 97
49 27 3
49 28 10
49 29 16
49 30 16
49 31 38
49 32 67
49 33 82
49 34 22
49 35 95
49 36 38
49 37 46
49 38 80
49 39 18
49 40 41
49 41 76
49 42 53
49 43 22
49 44 3
49 45 16
49 46 46
49 47 7
49 48 32
50 0 2
50 1 24
50 2 20
50 3 57
50 4 85
50 5 87
50 6 50
50 7 73
50 8 11
50 9 75
50 10 97
50 11 53
50 12 64
50 13 55
50 14 55
50 15 1
50 16 63
50 17 98
50 18 100
50 19 66
50 20 84
50 21 52
50 22 68
50 23 36
50 24 36
50 25 85
50 26 69
50 27 84
50 28 12
50 29 22
50 30 68
50 31 42
50 32 9
50 33 34
50 34 31
50 35 12
50 36 65
50 37 27
50 38 20
50 39 43
50 40 72
50 41 56
50 42 76
50 43 48
50 44 70
50 45 52
50 46 38
50 47 21
50 48 5
50 49 41
51 0 70
51 1 78
51 2 31
51 3 92
51 4 11
51 5 60
51 6 82
51 7 26
51 8 56
51 9 31
51 10 36
51 11 67
51 12 41
51 13 87
51 14 54
51 15 21
51 16 90
51 17 58
51 18 68
51 19 17
51 20 40
51 21 49
51 22 47
51 23 36
51 24 63
51 25 78
51 26 62
51 27 27
51 28 41
51 29 86
51 30 41
51 31 68
51 32 63
51 33 39
51 34 66
51 35 37
51 36 66
51 37 45
51 38 72
51 39 91
51 40 16
51 41 49
51 42 41
51 43 73
51 44 13
51 45 90
51 46 100
51 47 97
51 48 72
51 49 24
51 50 70
52 0 67
52 1 96
52 2 51
52 3 17
52 4 50
52 5 68
52 6 100
52 7 12
52 8 99
52 9 1
52 10 63
52 11 7
52 12 89
52 13 38
52 14 70
52 15 53
52 16 28
52 17 1
52 18 59
52 19 52
52 20 39
52 21 1
52 22 81
52 23 6
52 24 43
52 25 87
52 26 40
52 27 96
52 28 73
52 29 86
52 30 54
52 31 15
52 32 4
52 33 53
52 34 100
52 35 38
52 36 86
52 37 49
52 38 69
52 39 100
52 40 6
52 41 100
52 42 40
52 43 3
52 44 19
52 45 21
52 46 66
52 47 6
52 48 27
52 49 95
52 50 17
52 51 30
53 0 89
53 1 44
53 2 20
53 3 3
53 4 1
53 5 42
53 6 1
53 7 37
53 8 73
53 9 42
53 10 24
53 11 77
53 12 81
53 13 22
53 14 59
53 15 9
53 16 100
53 17 83
53 18 48
53 19 76
53 20 18
53 21 35
53 22 40
53 23 64
53 24 96
53 25 71
53 26 13
53 27 53
53 28 34
53 29 6
53 30 4
53 31 35
53 32 38
53 33 29
53 34 28
53 35 58
53 36 17
53 37 5
53 38 36
53 39 34
53 40 52
53 41 15
53 42 54
53 43 30
53 44 97
53 45 26
53 46 10
53 47 31
53 48 30
53 49 27
53 50 26
53 51 35
53 52 53
54 0 78
54 1 42
54 2 18
54 3 96
54 4 45
54 5 97
54 6 3
54 7 2
54 8 38
54 9 84
54 10 85
54 11 73
54 12 55
54 13 50
54 14 20
54 15 14
54 16 12
54 17 17
54 18 79
54 19 10
54 20 11
54 21 30
54 22 11
54 23 11
54 24 63
54 25 79
54 26 81
54 27 17
54 28 88
54 29 33
54 30 72
54 31 94
54 32 45
54 33 89
54 34 61
54 35 47
54 36 66
54 37 27
54 38 12
54 39 49
54 40 2
54 41 18
54 42 53
54 43 88
54 44 1
54 45 31
54 46 26
54 47 86
54 48 76
54 49 40
54 50 10
54 51 10
54 52 34
54 53 13
